db/data/264352728411010173882638622416254784862.z3.out
-------------------
2500.178312996
